column=9;
row=9;
left=[0, 3, 0, 0, 0, 0, 2, 0, 3];
right=[0, 0, 0, 1, 0, 0, 0, 3, 4];
top=[0, 3, 0, 0, 0, 4, 0, 0, 0];
bottom=[3, 0, 0, 2, 1, 0, 0, 0, 4];
Board=[|0,0,0,0,2,0,7,9,3|1,7,2,0,3,0,0,0,0|0,0,9,0,6,0,2,0,0|3,0,0,0,0,0,0,0,0|0,2,0,5,0,3,1,4,0|0,6,0,0,0,9,0,0,0|0,0,0,0,0,0,0,3,8|0,8,6,3,0,4,0,0,0|0,4,0,8,9,0,0,5,0|]